2-dimensional/CL_06_25_04.vbp
2
150 150 
25
88 24 30
79 30 72
43 32 4
53 74 88
45 67 54
65 30 64
23 87 90
97 69 26
91 74 94
77 66 28
73 36 72
42 82 49
56 89 54
53 47 19
77 55 28
40 77 61
38 24 84
38 73 23
28 29 67
28 44 53
82 55 54
21 27 16
23 30 9
52 82 54
99 68 77
