datasets/2-dimensional/CL_06_25_04.txt
150 150 
0 30 88 24 
1 72 79 30 
2 4 43 32 
3 88 53 74 
4 54 45 67 
5 64 65 30 
6 90 23 87 
7 26 97 69 
8 94 91 74 
9 28 77 66 
10 72 73 36 
11 49 42 82 
12 54 56 89 
13 19 53 47 
14 28 77 55 
15 61 40 77 
16 84 38 24 
17 23 38 73 
18 67 28 29 
19 53 28 44 
20 54 82 55 
21 16 21 27 
22 9 23 30 
23 54 52 82 
24 77 99 68 
